31205.0
132, 216, 223, 253, 370, 440, 449, 521, 546, 585, 753, 802, 874, 880, 1155, 1177, 1291, 1381, 1489, 1607, 1679, 1774, 1924, 1936, 1986, 2054, 2112, 2205, 2337, 2386, 2667, 2734, 2786, 2821, 2907, 2910, 2939, 3037, 3063, 3205, 3273, 3324, 3516, 3519, 3520, 3581, 3623, 3712, 3739, 3807, 3825, 3922, 3940, 4027, 4035, 4097, 4101, 4193, 4200, 4219, 4309, 4491, 4725, 4836